399
750
600	1
599	1
598	2
596	3
595	2
594	1
593	3
592	1
591	2
590	2
589	3
586	2
585	3
584	2
583	1
582	1
581	4
579	4
578	1
577	6
576	2
575	2
572	4
571	3
570	2
569	2
568	4
567	1
566	4
565	1
564	3
563	8
562	2
560	3
559	1
558	2
557	4
556	3
555	2
554	1
553	4
552	3
549	4
548	1
546	2
545	1
544	3
543	1
541	2
540	2
539	4
538	3
537	2
536	2
535	5
534	4
533	2
532	2
531	3
530	1
529	3
528	4
527	2
526	2
525	6
524	3
523	3
522	2
521	3
519	3
517	1
516	3
515	5
514	2
513	1
512	1
511	1
510	6
509	3
508	3
507	1
506	2
505	5
502	5
501	1
500	3
499	3
498	6
497	3
496	4
495	2
494	3
493	2
492	3
491	2
490	2
489	1
488	1
486	1
485	2
484	1
483	3
482	3
481	2
479	1
478	3
477	2
476	3
475	1
474	1
473	1
472	1
470	2
469	2
468	2
467	4
466	3
465	2
464	1
463	1
462	1
461	3
459	1
458	2
457	2
456	2
454	2
453	3
451	2
450	1
449	3
448	3
447	1
445	2
444	4
443	4
442	1
441	3
439	1
438	3
437	4
436	1
435	2
434	5
433	1
432	2
431	1
429	2
428	2
427	3
426	1
425	3
424	1
422	2
421	4
419	5
415	3
414	3
413	1
412	2
411	4
410	2
409	2
408	1
407	6
406	4
405	5
404	2
402	2
401	4
400	4
398	2
397	4
395	3
394	6
393	3
392	3
391	3
389	4
388	5
386	3
385	2
384	1
383	2
382	3
380	3
379	2
378	4
377	2
376	1
375	3
374	3
373	1
372	1
370	3
369	2
368	4
367	3
366	7
365	2
364	3
363	2
362	1
361	3
360	2
359	3
358	4
357	3
356	2
355	5
354	2
353	3
352	2
350	3
349	6
348	4
347	2
346	2
345	1
344	3
343	3
342	3
341	1
339	3
338	5
337	2
336	6
335	1
334	4
333	1
332	4
331	4
330	2
329	2
328	4
327	2
326	2
325	2
324	2
323	1
322	1
321	1
320	3
319	1
318	3
317	1
316	4
315	4
314	3
313	5
312	3
311	1
310	3
309	4
308	2
307	2
306	3
305	1
304	1
303	2
302	2
301	3
300	2
299	2
298	2
297	1
296	1
295	1
294	3
293	1
292	2
291	1
290	1
289	3
288	2
287	6
286	2
285	4
284	4
283	2
282	2
281	4
280	2
279	4
278	1
277	3
276	2
275	4
274	2
273	2
272	4
271	4
270	4
268	2
267	2
266	1
263	2
262	3
261	2
260	1
259	1
258	1
257	4
256	1
255	2
254	4
253	1
252	2
251	2
250	4
249	3
248	5
246	2
245	3
244	5
243	5
242	1
240	3
239	1
238	2
237	1
236	1
235	4
234	2
233	2
232	2
231	2
230	1
229	2
228	3
227	2
226	4
225	4
224	1
223	3
222	3
220	3
219	2
218	2
217	1
215	3
214	1
212	2
211	1
210	3
209	3
208	2
207	5
206	1
205	3
204	3
203	3
202	1
201	1
200	1
199	3
198	1
196	1
195	2
194	3
193	1
190	1
189	2
188	2
187	2
186	5
185	1
184	2
183	1
182	1
180	1
179	1
178	2
177	2
176	4
175	3
174	2
173	3
172	1
171	3
170	2
168	3
167	5
166	2
165	3
163	2
162	3
161	4
160	3
159	4
158	1
157	6
156	2
155	3
154	3
153	3
152	3
151	2
150	1
